(set-logic QF_S)
(declare-fun _var_0xINPUT_135644_() String)
(declare-fun __woorpje_diseq_pref0_() String)
(declare-fun __woorpje_diseq_suf_l0_() String)
(declare-fun __woorpje_diseq_suf_r0_() String)
(assert (=(str.++  "4rOEJEW0sK" "")(str.++ __woorpje_diseq_pref0_  "0" __woorpje_diseq_suf_l0_  "")) )
(assert (=(str.++ _var_0xINPUT_135644_  "")(str.++ __woorpje_diseq_pref0_  "K" __woorpje_diseq_suf_r0_  "")) )
(check-sat)
